000 000 -99 000 000 000 000 000 -99 -99 -99 -99 -99 000 -99 -99 -99 -99 -99 -99 -99 -99 -99 -99 000 000 000 000 000 -99 000
000 000 000 000 000 000 000 000 000 -99 -99 -99 -99 000 000 000 -99 -99 -99 -99 -99 -99 000 000 000 000 000 000 000 -99 000
000 000 000 000 000 000 -99 -99 -99 -99 -99 -99 -99 -99 000 000 -99 -99 -99 -99 -99 -99 000 000 000 000 000 000 000 -99 000
000 000 000 000 000 000 000 000 000 -99 -99 -99 -99 -99 -99 -99 -99 -99 -99 -99 -99 -99 000 000 000 000 000 000 000 -99 000
000 000 000 000 000 000 000 000 000 000 -99 -99 000 -99 -99 -99 -99 -99 -99 -99 -99 -99 000 000 000 000 000 000 000 -99 000
000 000 000 000 000 000 000 000 000 000 -99 -99 000 000 000 000 000 -99 -99 -99 000 000 000 000 000 -99 -99 000 000 -99 000
000 000 000 000 000 000 000 000 000 000 000 -99 -99 000 000 000 000 000 -99 -99 000 000 000 000 000 -99 -99 -99 -99 -99 -99
000 000 000 000 000 000 000 000 000 000 000 000 -99 -99 000 000 000 000 000 000 000 000 000 000 000 000 -99 -99 000 -99 -99
000 000 000 000 000 000 000 000 000 000 000 000 -99 -99 -99 -99 000 000 000 000 000 000 000 000 000 000 000 000 000 000 -99
000 000 000 000 000 000 000 000 000 000 000 000 -99 -99 000 000 000 000 000 000 000 000 000 -99 000 000 000 000 000 000 000
000 001 000 000 000 000 000 000 000 000 000 000 000 -99 000 000 000 000 000 000 000 000 000 000 000 000 000 000 000 000 000
002 003 001 000 000 000 000 000 000 000 000 000 000 -99 000 000 000 000 000 000 000 000 -99 000 000 000 000 000 000 000 000
006 005 002 000 000 000 000 001 000 000 000 000 000 000 000 000 000 000 000 000 000 000 000 000 000 000 000 000 000 000 001
035 019 004 001 001 000 000 001 001 000 000 000 000 000 000 000 000 000 000 000 000 000 000 000 000 000 000 000 000 000 001
054 096 023 002 001 000 000 001 002 001 001 000 000 000 000 000 000 000 000 000 000 000 000 000 000 000 000 000 000 001 001
085 092 025 004 001 001 002 002 002 002 001 003 001 000 000 000 000 000 000 000 000 000 000 000 000 000 000 000 001 002 002
077 075 078 015 001 002 003 002 002 004 004 008 002 001 000 000 000 000 000 000 000 000 000 000 000 000 001 000 001 001 002
075 085 046 065 012 004 003 006 004 004 006 006 003 001 000 000 001 001 000 001 000 000 000 000 000 000 001 000 001 001 003
013 014 042 083 017 004 004 007 006 010 006 012 003 002 000 000 001 001 001 001 000 000 000 000 000 000 001 000 001 002 005
016 019 039 044 013 008 010 010 009 006 011 018 008 003 001 001 001 001 001 002 001 000 001 -99 -99 000 000 001 001 002 005
020 013 016 025 012 013 010 013 015 010 023 022 021 007 003 002 005 007 005 007 006 002 003 001 -99 000 000 000 001 002 005
008 010 013 016 013 014 011 016 020 024 053 039 035 012 005 003 010 021 019 030 019 008 006 003 000 -99 -99 -99 -99 004 004
004 007 008 008 009 011 014 021 026 048 118 092 080 033 010 006 019 025 017 033 022 012 007 004 001 -99 -99 -99 -99 005 004
002 003 005 006 007 011 009 033 040 109 123 123 158 114 040 021 021 028 023 045 027 019 009 006 002 -99 -99 -99 009 008 007
002 002 006 008 005 004 003 021 025 037 089 058 088 100 061 028 022 013 033 052 051 026 015 009 002 -99 -99 -99 009 008 012
004 004 003 007 007 007 004 011 026 028 058 047 107 129 061 040 017 005 025 039 092 034 021 010 -99 -99 -99 -99 006 024 020
003 002 003 003 005 003 002 006 020 030 038 102 085 089 044 021 006 002 012 017 035 035 024 008 005 -99 -99 -99 006 018 023
002 002 001 001 002 000 001 004 029 054 080 080 080 042 025 005 000 000 003 004 006 013 016 007 003 -99 -99 004 004 010 028
000 000 000 000 000 001 000 005 023 062 056 035 042 021 010 002 000 000 000 001 002 006 011 005 004 001 001 005 003 006 038
000 000 000 000 000 002 002 006 028 058 042 015 005 007 011 001 000 000 000 000 001 003 005 003 002 001 001 005 007 005 057
000 000 000 000 001 010 005 014 032 062 022 002 001 003 005 001 000 000 000 000 001 001 002 002 002 000 001 006 012 008 128
000 000 000 000 001 006 010 007 009 016 007 000 000 001 002 000 000 000 000 000 001 000 000 001 000 000 001 003 014 020 149
-99 000 000 000 000 001 001 003 002 004 000 000 000 000 000 000 000 000 000 000 001 000 000 000 000 000 001 007 015 058 162
-99 -99 000 000 000 000 000 000 000 000 000 000 -99 000 000 000 000 000 000 -99 001 000 000 000 000 000 000 001 013 033 100
-99 000 000 000 000 000 000 000 000 000 -99 -99 -99 000 000 000 000 000 -99 -99 000 000 000 000 000 000 000 000 012 018 061
000 000 000 000 000 000 -99 000 000 000 -99 -99 -99 000 000 000 000 000 000 000 000 000 000 000 000 001 000 000 003 008 050
000 000 -99 000 000 -99 -99 000 000 -99 -99 -99 -99 -99 000 000 000 000 000 000 000 000 000 000 000 001 000 000 001 001 004
000 -99 000 000 000 -99 -99 000 000 -99 -99 -99 -99 000 000 000 000 000 000 -99 000 000 000 000 000 000 000 000 000 000 001
-99 -99 000 000 -99 -99 000 000 -99 -99 -99 -99 000 000 000 000 000 000 -99 -99 000 000 000 000 000 000 000 000 000 000 001
-99 000 000 000 000 -99 -99 -99 -99 -99 -99 -99 000 000 000 000 000 -99 -99 -99 000 000 000 000 000 000 -99 -99 000 000 001
-99 000 000 000 000 -99 -99 -99 -99 -99 -99 000 000 000 000 -99 -99 -99 -99 000 000 -99 -99 000 -99 000 -99 -99 000 000 001
000 000 -99 000 -99 -99 -99 -99 -99 -99 -99 -99 000 000 -99 -99 -99 000 000 000 000 -99 -99 -99 000 -99 -99 -99 000 000 000
000 000 -99 -99 -99 -99 -99 -99 -99 -99 -99 -99 -99 -99 -99 -99 000 000 000 000 -99 -99 -99 -99 000 -99 -99 -99 000 000 000
-99 -99 -99 -99 -99 -99 -99 -99 -99 -99 -99 000 -99 -99 -99 -99 000 000 000 000 -99 -99 -99 -99 000 000 -99 -99 000 000 -99
-99 -99 -99 -99 -99 -99 -99 -99 -99 -99 -99 -99 -99 -99 -99 -99 000 000 000 000 -99 -99 -99 000 000 -99 -99 -99 -99 -99 -99
-99 -99 -99 -99 -99 -99 -99 -99 -99 -99 -99 -99 -99 -99 -99 -99 -99 000 000 000 -99 -99 -99 000 000 000 000 000 -99 -99 -99
-99 -99 -99 -99 -99 -99 -99 -99 -99 -99 -99 -99 -99 -99 -99 -99 -99 000 000 000 -99 -99 -99 -99 -99 000 000 -99 -99 -99 -99
-99 -99 -99 -99 -99 -99 -99 -99 -99 -99 -99 -99 -99 -99 -99 -99 -99 -99 -99 000 -99 -99 -99 -99 -99 -99 -99 -99 000 -99 -99
-99 -99 -99 -99 -99 -99 -99 -99 -99 -99 -99 -99 -99 -99 -99 -99 -99 -99 -99 -99 000 000 000 -99 -99 -99 -99 -99 000 -99 -99
-99 -99 -99 -99 -99 -99 -99 -99 -99 -99 -99 -99 -99 -99 -99 -99 -99 -99 -99 -99 000 000 -99 -99 -99 -99 -99 -99 -99 -99 -99
-99 -99 -99 -99 -99 -99 -99 -99 -99 -99 -99 -99 -99 -99 -99 -99 -99 -99 -99 -99 -99 000 -99 -99 -99 000 -99 -99 -99 -99 -99
-99 -99 -99 -99 -99 -99 -99 -99 -99 -99 -99 -99 -99 -99 -99 -99 -99 -99 -99 -99 -99 -99 -99 -99 -99 000 -99 -99 -99 -99 000
-99 -99 -99 -99 -99 -99 -99 -99 -99 -99 -99 -99 -99 -99 -99 -99 -99 000 000 -99 -99 -99 -99 -99 -99 -99 -99 -99 -99 000 001
-99 -99 -99 -99 -99 -99 -99 -99 -99 -99 -99 -99 -99 -99 -99 -99 -99 000 -99 -99 -99 -99 -99 -99 -99 -99 -99 -99 000 000 002
-99 -99 -99 -99 -99 -99 -99 -99 -99 -99 -99 -99 -99 -99 -99 -99 -99 -99 -99 -99 -99 -99 -99 -99 -99 -99 -99 000 000 001 005
